248
245
252
248
257
254
238
249
266
252
248
255
254
257
246
242
257
234
253
256
258
248
243
218
261
240
240
253
248
271
243
259
260
255
239
245
272
252
253
241
263
266
267
241
248
240
227
253
280
257
249
256
242
258
258
259
247
247
225
258
261
263
247
253
263
233
251
252
244
254
242
253
244
272
266
234
245
258
253
251
251
242
239
242
238
251
257
253
242
244
262
250
252
248
241
254
257
271
240
253
